data/solutions/planning/wellformed/intermediate/highest_rank_objective/wellformed_intermediate_instance19_cplex.sol
Elapsed time: 21.32
Nodes explored: 3700
Nodes left: -
Relative gap: -
Upper bound: 19782516.0
Lower bound: -
C[0]=19338.0
C[1]=19338.0
C[2]=19337.0
C[3]=19337.0
C[4]=19337.0
C[5]=19337.0
C[6]=19337.0
C[7]=19337.0
C[8]=19336.0
C[9]=19336.0
y[0]=2
y[1]=0
y[2]=3
y[3]=2
y[4]=1
y[5]=4
y[6]=2
y[7]=8
y[8]=3
y[9]=3
y[10]=2
y[11]=3
y[12]=7
y[13]=1
y[14]=1
y[15]=7
y[16]=3
y[17]=5
y[18]=2
y[19]=8
y[20]=1
y[21]=3
y[22]=7
y[23]=2
y[24]=9
y[25]=6
y[26]=2
y[27]=8
y[28]=1
y[29]=3
y[30]=6
y[31]=7
y[32]=5
y[33]=1
y[34]=1
y[35]=7
y[36]=3
y[37]=0
y[38]=6
y[39]=6
y[40]=3
y[41]=2
y[42]=3
y[43]=2
y[44]=2
y[45]=8
y[46]=9
y[47]=0
y[48]=3
y[49]=3
y[50]=2
y[51]=6
y[52]=5
y[53]=0
y[54]=9
y[55]=1
y[56]=0
y[57]=2
y[58]=2
y[59]=6
y[60]=2
y[61]=2
y[62]=8
y[63]=2
y[64]=1
y[65]=2
y[66]=8
y[67]=7
y[68]=0
y[69]=5
y[70]=6
y[71]=0
y[72]=2
y[73]=0
y[74]=3
y[75]=8
y[76]=2
y[77]=2
y[78]=8
y[79]=1
y[80]=1
y[81]=7
y[82]=5
y[83]=1
y[84]=8
y[85]=6
y[86]=2
y[87]=0
y[88]=6
y[89]=3
y[90]=7
y[91]=9
y[92]=9
y[93]=4
y[94]=2
y[95]=3
y[96]=5
y[97]=3
y[98]=9
y[99]=0
y[100]=7
y[101]=7
y[102]=0
y[103]=6
y[104]=7
y[105]=7
y[106]=2
y[107]=2
y[108]=2
y[109]=2
y[110]=1
y[111]=3
y[112]=6
y[113]=9
y[114]=0
y[115]=8
y[116]=3
y[117]=6
y[118]=9
y[119]=9
y[120]=6
y[121]=3
y[122]=2
y[123]=8
y[124]=2
y[125]=6
y[126]=2
y[127]=4
y[128]=3
y[129]=8
y[130]=2
y[131]=2
y[132]=2
y[133]=0
y[134]=6
y[135]=7
y[136]=4
y[137]=5
y[138]=2
y[139]=8
y[140]=4
y[141]=4
y[142]=9
y[143]=5
y[144]=8
y[145]=8
y[146]=3
y[147]=5
y[148]=4
y[149]=4
y[150]=1
y[151]=0
y[152]=2
y[153]=2
y[154]=9
y[155]=6
y[156]=9
y[157]=2
y[158]=2
y[159]=7
y[160]=7
y[161]=3
y[162]=7
y[163]=3
y[164]=6
y[165]=6
y[166]=0
y[167]=9
y[168]=8
y[169]=2
y[170]=4
y[171]=0
y[172]=5
y[173]=7
y[174]=3
y[175]=9
y[176]=2
y[177]=2
y[178]=3
y[179]=8
y[180]=4
y[181]=7
y[182]=0
y[183]=4
y[184]=7
y[185]=0
y[186]=5
y[187]=4
y[188]=2
y[189]=8
y[190]=3
y[191]=6
y[192]=8
y[193]=5
y[194]=7
y[195]=0
y[196]=2
y[197]=3
y[198]=2
y[199]=1
y[200]=3
y[201]=2
y[202]=5
y[203]=5
y[204]=6
y[205]=4
y[206]=3
y[207]=1
y[208]=7
y[209]=1
y[210]=1
y[211]=3
y[212]=3
y[213]=2
y[214]=1
y[215]=3
y[216]=7
y[217]=7
y[218]=3
y[219]=2
y[220]=4
y[221]=1
y[222]=2
y[223]=3
y[224]=8
y[225]=4
y[226]=6
y[227]=5
y[228]=0
y[229]=2
y[230]=7
y[231]=8
y[232]=0
y[233]=0
y[234]=2
y[235]=9
y[236]=6
y[237]=7
y[238]=2
y[239]=2
y[240]=9
y[241]=5
y[242]=6
y[243]=2
y[244]=9
y[245]=1
y[246]=9
y[247]=2
y[248]=1
y[249]=2
y[250]=2
y[251]=8
y[252]=7
y[253]=2
y[254]=7
y[255]=4
y[256]=2
y[257]=3
y[258]=8
y[259]=2
y[260]=0
y[261]=5
y[262]=7
y[263]=1
y[264]=2
y[265]=3
y[266]=3
y[267]=8
y[268]=0
y[269]=0
y[270]=6
y[271]=9
y[272]=7
y[273]=0
y[274]=5
y[275]=0
y[276]=2
y[277]=7
y[278]=2
y[279]=4
y[280]=7
y[281]=9
y[282]=6
y[283]=3
y[284]=7
y[285]=0
y[286]=9
y[287]=1
y[288]=2
y[289]=5
y[290]=7
y[291]=2
y[292]=4
y[293]=9
y[294]=2
y[295]=7
y[296]=8
y[297]=1
y[298]=4
y[299]=5
y[300]=1
y[301]=7
y[302]=7
y[303]=0
y[304]=7
y[305]=4
y[306]=2
y[307]=2
y[308]=1
y[309]=2
y[310]=6
y[311]=0
y[312]=9
y[313]=4
y[314]=7
y[315]=3
y[316]=7
y[317]=2
y[318]=6
y[319]=7
y[320]=6
y[321]=3
y[322]=5
y[323]=4
y[324]=2
y[325]=6
y[326]=8
y[327]=0
y[328]=7
y[329]=8
y[330]=1
y[331]=7
y[332]=7
y[333]=2
y[334]=7
y[335]=3
y[336]=5
y[337]=7
y[338]=8
y[339]=0
y[340]=7
y[341]=2
y[342]=6
y[343]=1
y[344]=5
y[345]=7
y[346]=7
y[347]=0
y[348]=4
y[349]=4
y[350]=5
y[351]=1
y[352]=6
y[353]=3
y[354]=7
y[355]=9
y[356]=4
y[357]=5
y[358]=9
y[359]=9
y[360]=5
y[361]=5
y[362]=3
y[363]=1
y[364]=7
y[365]=7
y[366]=0
y[367]=2
y[368]=7
y[369]=7
y[370]=2
y[371]=2
y[372]=7
y[373]=7
y[374]=6
y[375]=3
y[376]=5
y[377]=7
y[378]=5
y[379]=6
y[380]=5
y[381]=1
y[382]=9
y[383]=8
y[384]=1
y[385]=0
y[386]=7
y[387]=8
y[388]=7
y[389]=2
y[390]=2
y[391]=3
y[392]=7
y[393]=4
y[394]=7
y[395]=8
y[396]=2
y[397]=3
y[398]=9
y[399]=9
