data/solutions/planning/wellformed/intermediate/highest_rank_objective/wellformed_intermediate_instance19_cplex.log
Found incumbent of value 193370.000000 after 0.00 sec. (0.33 ticks)
Tried aggregator 2 times.
Aggregator did 10 substitutions.
Reduced MIP has 410 rows, 4001 columns, and 8010 nonzeros.
Reduced MIP has 4000 binaries, 0 generals, 0 SOSs, and 0 indicators.
Presolve time = 0.01 sec. (6.23 ticks)
Tried aggregator 1 time.
Reduced MIP has 410 rows, 4001 columns, and 8010 nonzeros.
Reduced MIP has 4000 binaries, 1 generals, 0 SOSs, and 0 indicators.
Presolve time = 0.00 sec. (4.14 ticks)
Probing time = 0.00 sec. (1.94 ticks)
Clique table members: 400.
MIP emphasis: balance optimality and feasibility.
MIP search method: dynamic search.
Parallel mode: none, using 1 thread.
Root relaxation solution time = 0.01 sec. (19.13 ticks)

        Nodes                                         Cuts/
   Node  Left     Objective  IInf  Best Integer    Best Bound    ItCnt     Gap

*     0+    0                       193370.0000        0.0000           100.00%
      0     0    19337.0000    18   193370.0000    19337.0000      410   90.00%
*     0+    0                        19729.0000    19337.0000             1.99%
      0     0    19337.0000    23    19729.0000      Fract: 7      418    1.99%
*     0+    0                        19683.0000    19337.0000             1.76%
      0     0    19337.0000    22    19683.0000       Cuts: 7      428    1.76%
*     0+    0                        19674.0000    19337.0000             1.71%
*     0+    0                        19619.0000    19337.0000             1.44%
*     0+    0                        19601.0000    19337.0000             1.35%
*     0+    0                        19544.0000    19337.0000             1.06%
*     0+    0                        19533.0000    19337.0000             1.00%
*     0+    0                        19480.0000    19337.0000             0.73%
*     0+    0                        19479.0000    19337.0000             0.73%
*     0+    0                        19459.0000    19337.0000             0.63%
*     0+    0                        19453.0000    19337.0000             0.60%
*     0+    0                        19436.0000    19337.0000             0.51%
*     0+    0                        19389.0000    19337.0000             0.27%
*     0+    0                        19387.0000    19337.0000             0.26%
*     0+    0                        19383.0000    19337.0000             0.24%
*     0+    0                        19378.0000    19337.0000             0.21%
      0     2    19337.0000    15    19378.0000    19337.0000      433    0.21%
Elapsed time = 0.26 sec. (296.80 ticks, tree = 0.01 MB, solutions = 17)
    169   171    19337.0000    17    19378.0000    19337.0000     1643    0.21%
    170   172    19337.0000    16    19378.0000    19337.0000     1644    0.21%
    171   173    19337.0000    17    19378.0000    19337.0000     1655    0.21%
    172   174    19337.0000    16    19378.0000    19337.0000     1656    0.21%
    173   175    19337.0000    17    19378.0000    19337.0000     1667    0.21%
    174   176    19337.0000    17    19378.0000    19337.0000     1668    0.21%
    175   177    19337.0000    16    19378.0000    19337.0000     1674    0.21%
    176   178    19337.0000    16    19378.0000    19337.0000     1681    0.21%
    177   179    19337.0000    16    19378.0000    19337.0000     1682    0.21%
*   503+  336                        19376.0000    19337.0000             0.20%
*   503+  224                        19372.0000    19337.0000             0.18%
*   503+  149                        19363.0000    19337.0000             0.13%
*   503+   98                        19355.0000    19337.0000             0.09%
    503    99    19337.0000    17    19355.0000    19337.0000     4004    0.09%
Elapsed time = 1.24 sec. (1523.56 ticks, tree = 0.24 MB, solutions = 21)
    723   224    19337.0000    14    19355.0000    19337.0000     5076    0.09%
    724   225    19337.0000    14    19355.0000    19337.0000     5090    0.09%
    725   226    19337.0000    15    19355.0000    19337.0000     5099    0.09%
    726   227    19337.0000    15    19355.0000    19337.0000     5101    0.09%
    727   227    19337.0000    14    19355.0000    19337.0000     5122    0.09%
    728   227    19337.0000    14    19355.0000    19337.0000     5124    0.09%
    729   228    19337.0000    14    19355.0000    19337.0000     5126    0.09%
    730   229    19337.0000    14    19355.0000    19337.0000     5128    0.09%
    731   230    19337.0000    15    19355.0000    19337.0000     5136    0.09%
    732   231    19337.0000    14    19355.0000    19337.0000     5145    0.09%
Elapsed time = 1.91 sec. (2508.31 ticks, tree = 0.48 MB, solutions = 21)
*   983+  359                        19353.0000    19337.0000             0.08%
   1024   399    19337.0000    16    19353.0000    19337.0000     6534    0.08%
   1025   400    19337.0000    16    19353.0000    19337.0000     6535    0.08%
   1026   401    19337.0000    16    19353.0000    19337.0000     6543    0.08%
   1027   402    19337.0000    16    19353.0000    19337.0000     6549    0.08%
   1028   403    19337.0000    16    19353.0000    19337.0000     6550    0.08%
   1029   404    19337.0000    17    19353.0000    19337.0000     6558    0.08%
   1030   405    19337.0000    15    19353.0000    19337.0000     6568    0.08%
   1031   406    19337.0000    16    19353.0000    19337.0000     6570    0.08%
   1032   407    19337.0000    16    19353.0000    19337.0000     6580    0.08%
   1033   408    19337.0000    14    19353.0000    19337.0000     6584    0.08%
Elapsed time = 2.56 sec. (3495.24 ticks, tree = 0.97 MB, solutions = 22)
*  1083+  456                        19348.0000    19337.0000             0.06%
   1307   682    19337.0000    15    19348.0000    19337.0000     8570    0.06%
   1308   683    19337.0000    15    19348.0000    19337.0000     8572    0.06%
   1309   684    19337.0000    15    19348.0000    19337.0000     8574    0.06%
   1310   685    19337.0000    16    19348.0000    19337.0000     8577    0.06%
   1311   686    19337.0000    16    19348.0000    19337.0000     8578    0.06%
   1312   687    19337.0000    15    19348.0000    19337.0000     8588    0.06%
   1313   688    19337.0000    15    19348.0000    19337.0000     8593    0.06%
   1314   689    19337.0000    15    19348.0000    19337.0000     8597    0.06%
   1315   690    19337.0000    14    19348.0000    19337.0000     8604    0.06%
   1316   691    19337.0000    16    19348.0000    19337.0000     8606    0.06%
Elapsed time = 3.25 sec. (4466.05 ticks, tree = 1.76 MB, solutions = 23)
*  1423+  795                        19346.0000    19337.0000             0.05%
*  1503+  872                        19340.0000    19337.0000             0.02%
*  1513+  720                        19339.0000    19337.0000             0.01%
   1723   929    19337.0000    15    19339.0000    19337.0000    10224    0.01%
   1724   930    19337.0000    15    19339.0000    19337.0000    10226    0.01%
   1725   931    19337.0000    15    19339.0000    19337.0000    10235    0.01%
   1726   932    19337.0000    15    19339.0000    19337.0000    10238    0.01%
   1727   933    19337.0000    14    19339.0000    19337.0000    10241    0.01%
   1728   934    19337.0000    15    19339.0000    19337.0000    10246    0.01%
   1729   935    19337.0000    13    19339.0000    19337.0000    10256    0.01%
   1730   936    19337.0000    15    19339.0000    19337.0000    10259    0.01%
   1731   937    19337.0000    14    19339.0000    19337.0000    10268    0.01%
   1732   938    19337.0000    13    19339.0000    19337.0000    10277    0.01%
Elapsed time = 3.95 sec. (5433.05 ticks, tree = 2.44 MB, solutions = 26)
   2261  1466    19337.0000    14    19339.0000    19337.0000    13331    0.01%
   2262  1467    19337.0000    14    19339.0000    19337.0000    13337    0.01%
   2263  1468    19337.0000    14    19339.0000    19337.0000    13338    0.01%
   2264  1469    19337.0000    14    19339.0000    19337.0000    13346    0.01%
   2265  1470    19337.0000    14    19339.0000    19337.0000    13350    0.01%
   2266  1471    19337.0000    14    19339.0000    19337.0000    13361    0.01%
   2267  1472    19337.0000    14    19339.0000    19337.0000    13371    0.01%
   2268  1473    19337.0000    14    19339.0000    19337.0000    13379    0.01%
   2269  1474    19337.0000    14    19339.0000    19337.0000    13383    0.01%
   2270  1475    19337.0000    14    19339.0000    19337.0000    13397    0.01%
Elapsed time = 4.70 sec. (6402.99 ticks, tree = 3.93 MB, solutions = 26)
   2964  2163    19337.0000    11    19339.0000    19337.0000    17360    0.01%
   2965  2164    19337.0000    12    19339.0000    19337.0000    17362    0.01%
   2966  2165    19337.0000    12    19339.0000    19337.0000    17365    0.01%
   2967  2165    19337.1250    14    19339.0000    19337.0000    17371    0.01%
   2968  2166    19338.0000    12    19339.0000    19337.0000    17373    0.01%
   2969  2167    19338.0000    10    19339.0000    19337.0000    17376    0.01%
   2970  2168    19338.0000    10    19339.0000    19337.0000    17377    0.01%
   2971  2169    19338.0000    10    19339.0000    19337.0000    17378    0.01%
   2972  2170    19338.0000    10    19339.0000    19337.0000    17379    0.01%
   2973  2171    19338.0000    10    19339.0000    19337.0000    17383    0.01%
Elapsed time = 5.37 sec. (7366.76 ticks, tree = 6.05 MB, solutions = 26)
*  3343+ 2257                        19338.0000    19337.0000             0.01%

Cover cuts applied:  1
Mixed integer rounding cuts applied:  1

Root node processing (before b&c):
  Real time             =    0.26 sec. (297.40 ticks)
Sequential b&c:
  Real time             =    5.37 sec. (7478.02 ticks)
                          ------------
Total (root+branch&cut) =    5.62 sec. (7775.42 ticks)

Populate: phase II 
Tried aggregator 2 times.
Aggregator did 10 substitutions.
Reduced MIP has 410 rows, 4001 columns, and 8010 nonzeros.
Reduced MIP has 4000 binaries, 0 generals, 0 SOSs, and 0 indicators.
Presolve time = 0.01 sec. (6.23 ticks)
Probing time = 0.00 sec. (1.94 ticks)
Clique table members: 400.
MIP emphasis: balance optimality and feasibility.
MIP search method: dynamic search.
Parallel mode: none, using 1 thread.
Root relaxation solution time = 0.01 sec. (19.13 ticks)

        Nodes                                         Cuts/
   Node  Left     Objective  IInf  Best Integer    Best Bound    ItCnt     Gap

*     0+    0                        19338.0000        0.0000           100.00%
      0     0    19337.0000    18    19338.0000    19337.0000      410    0.01%
      0     2    19337.0000    18    19338.0000    19337.0000      410    0.01%
Elapsed time = 0.37 sec. (385.50 ticks, tree = 0.01 MB, solutions = 55)
      1     3    19337.0000    18    19338.0000    19337.0000      419    0.01%
      2     4    19337.0000    18    19338.0000    19337.0000      423    0.01%
      3     5    19337.0000    18    19338.0000    19337.0000      424    0.01%
      4     6    19337.0000    18    19338.0000    19337.0000      425    0.01%
      5     7    19337.0000    17    19338.0000    19337.0000      429    0.01%
      6     8    19337.0000    17    19338.0000    19337.0000      430    0.01%
      7     9    19337.0000    16    19338.0000    19337.0000      434    0.01%
      8    10    19337.0000    16    19338.0000    19337.0000      438    0.01%
      9    11    19337.0000    15    19338.0000    19337.0000      442    0.01%
     10    12    19337.0000    16    19338.0000    19337.0000      446    0.01%
Elapsed time = 2.66 sec. (2718.99 ticks, tree = 0.02 MB, solutions = 178)
     44    46    19337.0000    17    19338.0000    19337.0000      562    0.01%
     45    47    19337.0000    17    19338.0000    19337.0000      563    0.01%
     46    48    19337.0000    16    19338.0000    19337.0000      568    0.01%
     47    49    19337.0000    15    19338.0000    19337.0000      572    0.01%
     48    50    19337.0000    16    19338.0000    19337.0000      578    0.01%
     49    51    19337.0000    16    19338.0000    19337.0000      580    0.01%
     50    52    19337.0000    16    19338.0000    19337.0000      589    0.01%
     51    53    19337.0000    16    19338.0000    19337.0000      590    0.01%
     52    54    19337.0000    16    19338.0000    19337.0000      593    0.01%
     53    55    19337.0000    16    19338.0000    19337.0000      595    0.01%
Elapsed time = 4.37 sec. (3963.77 ticks, tree = 0.09 MB, solutions = 451)
     85    87    19337.0000    14    19338.0000    19337.0000      762    0.01%
     86    88    19337.0000    14    19338.0000    19337.0000      765    0.01%
     87    89    19337.0000    16    19338.0000    19337.0000      773    0.01%
     88    90    19337.0000    13    19338.0000    19337.0000      778    0.01%
     89    91    19337.0000    15    19338.0000    19337.0000      787    0.01%
     90    92    19337.0000    14    19338.0000    19337.0000      791    0.01%
     91    93    19337.0000    15    19338.0000    19337.0000      796    0.01%
     92    94    19337.0000    13    19338.0000    19337.0000      800    0.01%
     93    95    19337.0000    15    19338.0000    19337.0000      806    0.01%
     94    96    19337.0000    14    19338.0000    19337.0000      807    0.01%
Elapsed time = 6.12 sec. (5232.78 ticks, tree = 0.16 MB, solutions = 732)
    128   130    19337.0000    13    19338.0000    19337.0000      946    0.01%
    129   131    19337.0000    14    19338.0000    19337.0000      956    0.01%
    130   132    19337.0000    14    19338.0000    19337.0000      957    0.01%
    131   133    19337.0000    14    19338.0000    19337.0000      969    0.01%
    132   134    19337.0000    13    19338.0000    19337.0000      971    0.01%
    133   135    19337.0000    13    19338.0000    19337.0000      975    0.01%
    134   136    19337.0000    13    19338.0000    19337.0000      977    0.01%
    135   137    19337.0000    13    19338.0000    19337.0000      982    0.01%
    136   138    19337.0000    13    19338.0000    19337.0000      987    0.01%
    137   139    19337.0000    13    19338.0000    19337.0000      995    0.01%
Elapsed time = 7.80 sec. (6460.28 ticks, tree = 0.24 MB, solutions = 956)
    172   174    19337.0000    14    19338.0000    19337.0000     1130    0.01%
    173   175    19337.0000    15    19338.0000    19337.0000     1134    0.01%
    174   176    19337.0000    14    19338.0000    19337.0000     1138    0.01%
    175   177    19337.0000    15    19338.0000    19337.0000     1144    0.01%
    176   178    19337.0000    15    19338.0000    19337.0000     1148    0.01%
    177   179    19337.0000    15    19338.0000    19337.0000     1154    0.01%
    178   180    19337.0000    15    19338.0000    19337.0000     1155    0.01%
    179   181    19337.0000    13    19338.0000    19337.0000     1159    0.01%
    180   182    19337.0000    13    19338.0000    19337.0000     1162    0.01%
    181   183    19337.0000    13    19338.0000    19337.0000     1165    0.01%
Elapsed time = 9.42 sec. (7618.69 ticks, tree = 0.32 MB, solutions = 1204)
    223   225    19337.0000    13    19338.0000    19337.0000     1348    0.01%
    224   226    19337.0000    14    19338.0000    19337.0000     1350    0.01%
    225   227    19337.0000    14    19338.0000    19337.0000     1353    0.01%
    226   228    19337.0000    15    19338.0000    19337.0000     1358    0.01%
    227   229    19337.0000    15    19338.0000    19337.0000     1364    0.01%
    228   230    19337.0000    14    19338.0000    19337.0000     1366    0.01%
    229   231    19337.0000    14    19338.0000    19337.0000     1368    0.01%
    230   232    19337.0000    15    19338.0000    19337.0000     1372    0.01%
    231   233    19337.0000    14    19338.0000    19337.0000     1376    0.01%
    232   234    19337.0000    15    19338.0000    19337.0000     1380    0.01%
Elapsed time = 11.15 sec. (8856.33 ticks, tree = 0.42 MB, solutions = 1438)
    271   273    19337.0000    13    19338.0000    19337.0000     1542    0.01%
    272   274    19337.0000    13    19338.0000    19337.0000     1544    0.01%
    273   275    19337.0000    13    19338.0000    19337.0000     1548    0.01%
    274   276    19337.0000    13    19338.0000    19337.0000     1550    0.01%
    275   277    19337.0000    14    19338.0000    19337.0000     1554    0.01%
    276   278    19337.0000    14    19338.0000    19337.0000     1559    0.01%
    277   279    19337.0000    14    19338.0000    19337.0000     1562    0.01%
    278   280    19337.0000    15    19338.0000    19337.0000     1566    0.01%
    279   281    19337.0000    13    19338.0000    19337.0000     1567    0.01%
    280   282    19337.0000    16    19338.0000    19337.0000     1573    0.01%
Elapsed time = 12.78 sec. (10021.22 ticks, tree = 0.53 MB, solutions = 1652)
    320   322    19337.0000    15    19338.0000    19337.0000     1716    0.01%
    321   323    19337.0000    15    19338.0000    19337.0000     1719    0.01%
    322   324    19337.0000    17    19338.0000    19337.0000     1727    0.01%
    323   325    19337.0000    16    19338.0000    19337.0000     1733    0.01%
    324   326    19337.0000    15    19338.0000    19337.0000     1736    0.01%
    325   327    19337.0000    15    19338.0000    19337.0000     1740    0.01%
    326   328    19337.0000    15    19338.0000    19337.0000     1742    0.01%
    327   329    19337.0000    14    19338.0000    19337.0000     1746    0.01%
    328   330    19337.0000    15    19338.0000    19337.0000     1748    0.01%
    329   331    19337.0000    15    19338.0000    19337.0000     1753    0.01%
Elapsed time = 14.55 sec. (11195.11 ticks, tree = 0.64 MB, solutions = 1859)

Root node processing (before b&c):
  Real time             =    0.43 sec. (439.75 ticks)
Sequential b&c:
  Real time             =   15.26 sec. (11572.54 ticks)
                          ------------
Total (root+branch&cut) =   15.69 sec. (12012.29 ticks)
